p cnf 10 50
-2 -7 10 0
-3 6 -5 0
-9 10 6 0
-10 -9 -5 0
3 7 -5 0
9 -2 -10 0
-2 4 8 0
-9 5 -6 0
8 -10 9 0
-1 4 -8 0
6 2 -1 0
4 -3 -7 0
8 -1 4 0
5 -1 6 0
7 -6 -3 0
10 9 -2 0
5 9 -1 0
10 -8 -7 0
5 -9 6 0
10 1 8 0
-4 -1 6 0
-2 4 7 0
-3 6 4 0
8 -1 7 0
10 -9 -7 0
-9 -1 -4 0
-8 -6 -7 0
9 -2 -5 0
-2 7 -6 0
-4 1 -6 0
9 4 -3 0
-2 9 1 0
-5 3 -1 0
8 6 7 0
1 -6 -10 0
-1 -9 -10 0
-1 -2 5 0
3 -6 8 0
-6 5 2 0
-7 -6 -8 0
-8 3 -9 0
9 1 3 0
6 4 -1 0
1 10 -5 0
7 4 -9 0
-2 -6 -8 0
4 6 5 0
-6 2 -1 0
-8 -4 3 0
7 -6 -10 0